Minimize
  obj: x0 + x1 + x2 + x3 + x4 + x5 + x6

Subject To
  c0: x3 + x4 + x5 + x6 = 39
  c1: x0 + x1 + x3 + x6 = 42
  c2: x0 + x1 + x3 + x4 + x5 + x6 = 63
  c3: x4 + x5 = 21
  c4: x2 + x3 + x6 = 27
  c5: x4 + x6 = 38
  c6: x1 + x2 + x3 + x4 + x6 = 62
  c7: x0 + x3 + x4 + x6 = 47
  c8: x0 + x3 + x4 = 29

Bounds
  x0 >= 0
  x1 >= 0
  x2 >= 0
  x3 >= 0
  x4 >= 0
  x5 >= 0
  x6 >= 0

Generals
  x0 x1 x2 x3 x4 x5 x6

End
